(set-option :auto-config true)
(set-option :model-validate true)
(set-logic ALL)
(declare-const GEN1 Real)
(declare-const GEN2 Real)
(declare-const GEN3 Real)
(declare-const GEN4 Real)
(declare-const GEN5 Real)
(declare-const GEN6 Real)
(declare-const GEN7 Real)
(declare-const GEN8 Real)
(declare-const GEN9 Real)
(declare-const GEN10 Real)
(declare-const GEN11 Real)
(declare-const GEN12 Real)
(declare-const BAV13 Bool)
(declare-const BAV14 Bool)
(declare-const BAV15 Bool)
(declare-const BAV16 Bool)
(declare-const BAV17 Bool)
(declare-const BAV18 Bool)
(declare-const BAV19 Bool)
(declare-const BAV20 Bool)
(declare-const BAV21 Bool)
(declare-const BAV22 Bool)
(declare-fun skoSM1 () Real)
(declare-fun skoSP1 () Real)
(declare-fun skoS () Real)
(declare-fun skoX () Real)
(assert (<= (* skoSM1 (+ GEN1 (* skoSM1 (+ (- GEN2) (* GEN3 skoSM1))))) GEN4))
(assert (not (= skoS GEN5)))
(assert (= (* skoSP1 skoSP1) (+ GEN6 skoX)))
(assert (= (* skoSM1 skoSM1) (+ (- GEN7) skoX)))
(assert (= (* skoS skoS) skoX))
(assert (not (<= skoX GEN8)))
(assert (not (<= skoSP1 GEN9)))
(assert (not (<= skoSM1 GEN10)))
(assert (not (<= skoS GEN11)))
(assert (not (<= GEN12 skoX)))
(assert (= BAV13 (<= (* skoSM1 (+ GEN1 (* skoSM1 (+ (- GEN2) (* GEN3 skoSM1))))) GEN4)))
(assert (= BAV14 (= skoS GEN5)))
(assert (= BAV15 (= (* skoSP1 skoSP1) (+ GEN6 skoX))))
(assert (= BAV16 (= (* skoSM1 skoSM1) (+ (- GEN7) skoX))))
(assert (= BAV17 (= (* skoS skoS) skoX)))
(assert (= BAV18 (<= skoX GEN8)))
(assert (= BAV19 (<= skoSP1 GEN9)))
(assert (= BAV20 (<= skoSM1 GEN10)))
(assert (= BAV21 (<= skoS GEN11)))
(assert (= BAV22 (<= GEN12 skoX)))
(check-sat)